0 2510 
1 2504 
2 2476 
3 2472 
4 2466 
5 2458 
6 2448 
7 2444 
8 2436 
9 2420 
10 2416 
11 2408 
12 2404 
13 2402 
14 2400 
15 2392 
16 2378 
17 2364 
18 2358 
19 2344 
20 2336 
21 2332 
22 2316 
23 2312 
24 2308 
25 2300 
26 2300 
27 2296 
28 2296 
29 2290 
30 2276 
31 2268 
32 2240 
33 2236 
34 2228 
35 2212 
36 2200 
37 2200 
38 2180 
39 2178 
40 2170 
41 2164 
42 2148 
43 2136 
44 2128 
45 2120 
46 2110 
47 2106 
48 2096 
49 2074 
50 2066 
51 2050 
52 2046 
53 2038 
54 2020 
55 2010 
56 2006 
57 1990 
58 1982 
59 1982 

